(declare-fun ExpandObjSwitcher () Real)
(declare-fun Constructed_Argument_t () String)
(declare-fun CreateAsClass () Bool)
(declare-fun CreateAsClass_2 () Bool)
(declare-fun Constructed_Argument_elements_apply_0_t () String)
(assert (= ExpandObjSwitcher 5.0))
(assert (= Constructed_Argument_t "object"))
(assert (not CreateAsClass))
(assert (not CreateAsClass_2))
(assert (not (= Constructed_Argument_elements_apply_0_t "string")))
(assert (= Constructed_Argument_elements_apply_0_t "number"))
(check-sat)
